16549
1 0 0 1 1 1 0 1 1 1 1 1 0 1 0 0 1 0 1 1 1 1 1 0 1 1 0 0 1 1
8 10 0 3 11 8 13 8 7 9 20 21 18 22 5 22 8 8 7 5 21 20 8 25 5 22 0 16 5 13 4 13 11 9 4 21 28 24 4 11 25 13 22 10 21 29 0 9 5 7 22 13 8 7 13 22 18 8 3 25 10 13 8 7 9 0 13 11 10 4 20 22 18 21 4 22 7 16 7 7 4 13 10 10 4 21 28 8 7 5 4 13 18 9 4 8 13 24 21 5 11 13 22 7 3 22 20 8 7 13 10 20 8 5 7 22 8 8 7 9 10 20 9 5 7 21 18 8 8 11 22 16 8 7 7 24 18 29 8 25 8 19 18 19 21 22 0 29 7 5